c nIsolatedPIs 8
c maxPI 24
p cnf 97 220
c gate 25 -4 16 0
-4 -25 0
16 -25 0
4 -16 25 0
c gate 26 -1 13 0
-1 -26 0
13 -26 0
1 -13 26 0
c gate 27 -25 -26 0
-25 -27 0
-26 -27 0
25 26 27 0
c gate 28 5 -17 0
5 -28 0
-17 -28 0
-5 17 28 0
c gate 29 4 -16 0
4 -29 0
-16 -29 0
-4 16 29 0
c gate 30 -28 -29 0
-28 -30 0
-29 -30 0
28 29 30 0
c gate 31 -27 30 0
-27 -31 0
30 -31 0
27 -30 31 0
c gate 32 -6 18 0
-6 -32 0
18 -32 0
6 -18 32 0
c gate 33 -5 17 0
-5 -33 0
17 -33 0
5 -17 33 0
c gate 34 -32 -33 0
-32 -34 0
-33 -34 0
32 33 34 0
c gate 35 -31 34 0
-31 -35 0
34 -35 0
31 -34 35 0
c gate 36 6 -18 0
6 -36 0
-18 -36 0
-6 18 36 0
c gate 37 7 -19 0
7 -37 0
-19 -37 0
-7 19 37 0
c gate 38 -36 -37 0
-36 -38 0
-37 -38 0
36 37 38 0
c gate 39 -35 38 0
-35 -39 0
38 -39 0
35 -38 39 0
c gate 40 -8 20 0
-8 -40 0
20 -40 0
8 -20 40 0
c gate 41 -7 19 0
-7 -41 0
19 -41 0
7 -19 41 0
c gate 42 -40 -41 0
-40 -42 0
-41 -42 0
40 41 42 0
c gate 43 -39 42 0
-39 -43 0
42 -43 0
39 -42 43 0
c gate 44 9 -21 0
9 -44 0
-21 -44 0
-9 21 44 0
c gate 45 8 -20 0
8 -45 0
-20 -45 0
-8 20 45 0
c gate 46 -44 -45 0
-44 -46 0
-45 -46 0
44 45 46 0
c gate 47 -43 46 0
-43 -47 0
46 -47 0
43 -46 47 0
c gate 48 -9 21 0
-9 -48 0
21 -48 0
9 -21 48 0
c gate 49 -10 -22 0
-10 -49 0
-22 -49 0
10 22 49 0
c gate 50 10 22 0
10 -50 0
22 -50 0
-10 -22 50 0
c gate 51 -49 -50 0
-49 -51 0
-50 -51 0
49 50 51 0
c gate 52 -48 -51 0
-48 -52 0
-51 -52 0
48 51 52 0
c gate 53 -47 52 0
-47 -53 0
52 -53 0
47 -52 53 0
c gate 54 -4 -16 0
-4 -54 0
-16 -54 0
4 16 54 0
c gate 55 1 13 0
1 -55 0
13 -55 0
-1 -13 55 0
c gate 56 -54 55 0
-54 -56 0
55 -56 0
54 -55 56 0
c gate 57 5 17 0
5 -57 0
17 -57 0
-5 -17 57 0
c gate 58 4 16 0
4 -58 0
16 -58 0
-4 -16 58 0
c gate 59 -57 -58 0
-57 -59 0
-58 -59 0
57 58 59 0
c gate 60 -56 59 0
-56 -60 0
59 -60 0
56 -59 60 0
c gate 61 -5 -17 0
-5 -61 0
-17 -61 0
5 17 61 0
c gate 62 -6 -18 0
-6 -62 0
-18 -62 0
6 18 62 0
c gate 63 -61 -62 0
-61 -63 0
-62 -63 0
61 62 63 0
c gate 64 -60 63 0
-60 -64 0
63 -64 0
60 -63 64 0
c gate 65 7 19 0
7 -65 0
19 -65 0
-7 -19 65 0
c gate 66 6 18 0
6 -66 0
18 -66 0
-6 -18 66 0
c gate 67 -65 -66 0
-65 -67 0
-66 -67 0
65 66 67 0
c gate 68 -64 67 0
-64 -68 0
67 -68 0
64 -67 68 0
c gate 69 -8 -20 0
-8 -69 0
-20 -69 0
8 20 69 0
c gate 70 -7 -19 0
-7 -70 0
-19 -70 0
7 19 70 0
c gate 71 -69 -70 0
-69 -71 0
-70 -71 0
69 70 71 0
c gate 72 -68 71 0
-68 -72 0
71 -72 0
68 -71 72 0
c gate 73 -44 -48 0
-44 -73 0
-48 -73 0
44 48 73 0
c gate 74 8 20 0
8 -74 0
20 -74 0
-8 -20 74 0
c gate 75 -73 -74 0
-73 -75 0
-74 -75 0
73 74 75 0
c gate 76 -72 75 0
-72 -76 0
75 -76 0
72 -75 76 0
c gate 77 -9 -21 0
-9 -77 0
-21 -77 0
9 21 77 0
c gate 78 -49 -77 0
-49 -78 0
-77 -78 0
49 77 78 0
c gate 79 11 23 0
11 -79 0
23 -79 0
-11 -23 79 0
c gate 80 -50 -79 0
-50 -80 0
-79 -80 0
50 79 80 0
c gate 81 -78 80 0
-78 -81 0
80 -81 0
78 -80 81 0
c gate 82 -12 -24 0
-12 -82 0
-24 -82 0
12 24 82 0
c gate 83 -11 -23 0
-11 -83 0
-23 -83 0
11 23 83 0
c gate 84 -82 -83 0
-82 -84 0
-83 -84 0
82 83 84 0
c gate 85 -81 84 0
-81 -85 0
84 -85 0
81 -84 85 0
c gate 86 2 14 0
2 -86 0
14 -86 0
-2 -14 86 0
c gate 87 12 24 0
12 -87 0
24 -87 0
-12 -24 87 0
c gate 88 -86 -87 0
-86 -88 0
-87 -88 0
86 87 88 0
c gate 89 -85 88 0
-85 -89 0
88 -89 0
85 -88 89 0
c gate 90 3 15 0
3 -90 0
15 -90 0
-3 -15 90 0
c gate 91 -2 -14 0
-2 -91 0
-14 -91 0
2 14 91 0
c gate 92 -3 -15 0
-3 -92 0
-15 -92 0
3 15 92 0
c gate 93 -91 -92 0
-91 -93 0
-92 -93 0
91 92 93 0
c gate 94 -90 93 0
-90 -94 0
93 -94 0
90 -93 94 0
c gate 95 -89 94 0
-89 -95 0
94 -95 0
89 -94 95 0
c gate 96 -76 -95 0
-76 -96 0
-95 -96 0
76 95 96 0
c gate 97 -53 96 0
-53 -97 0
96 -97 0
53 -96 97 0
c PO
-97 0
